====================================================================================================================
File name: 100_20_65_15.def
Creation date: Mon Nov 24 20:40:29 CET 2014
Website: http://imopse.ii.pwr.edu.pl/
Reference:
Myszkowski P. B., Skowronski M. E., Olech L., Oslizlo K.,
Hybrid Ant Colony Optimization in solving Multi-Skill Resource-Constrained Project Scheduling Problem,
Soft Computing, DOI: DOI 10.1007/s00500-014-1455-x
====================================================================================================================
General characteristics:
Tasks: 100
Resources: 20
Precedence relations: 65
Number of skill types: 15
====================================================================================================================
ResourceID 	 Salary 	 Skills
1	 	 	28.7	 	 Q0: 2 	  Q11: 0 	  Q9: 2 	  Q10: 0 	  Q2: 0 	  Q1: 2
2	 	 	43.7	 	 Q11: 1 	  Q4: 2 	  Q7: 1 	  Q3: 0 	  Q14: 2 	  Q5: 2
3	 	 	78.6	 	 Q4: 0 	  Q6: 0 	  Q11: 1 	  Q9: 0 	  Q2: 2 	  Q3: 2
4	 	 	95.2	 	 Q2: 2 	  Q4: 1 	  Q8: 2 	  Q11: 1 	  Q0: 2 	  Q14: 0
5	 	 	51.8	 	 Q2: 1 	  Q13: 2 	  Q11: 2 	  Q3: 1 	  Q12: 2 	  Q14: 1
6	 	 	68.8	 	 Q12: 0 	  Q11: 0 	  Q1: 0 	  Q3: 2 	  Q9: 2 	  Q13: 2
7	 	 	45.7	 	 Q10: 1 	  Q0: 0 	  Q11: 2 	  Q1: 1 	  Q12: 0 	  Q14: 0
8	 	 	29.1	 	 Q13: 0 	  Q14: 0 	  Q5: 0 	  Q0: 0 	  Q11: 2 	  Q12: 2
9	 	 	64.2	 	 Q10: 0 	  Q1: 2 	  Q14: 2 	  Q7: 0 	  Q11: 2 	  Q9: 1
10	 	 	11.8	 	 Q5: 0 	  Q7: 1 	  Q14: 1 	  Q4: 1 	  Q2: 1 	  Q13: 0
11	 	 	13.1	 	 Q2: 0 	  Q14: 2 	  Q8: 1 	  Q5: 0 	  Q0: 0 	  Q3: 2
12	 	 	49.1	 	 Q11: 1 	  Q5: 1 	  Q13: 2 	  Q9: 2 	  Q1: 0 	  Q6: 2
13	 	 	29.0	 	 Q7: 2 	  Q3: 1 	  Q1: 2 	  Q10: 2 	  Q5: 1 	  Q6: 1
14	 	 	10.0	 	 Q1: 1 	  Q10: 0 	  Q2: 0 	  Q8: 1 	  Q3: 1 	  Q7: 1
15	 	 	78.1	 	 Q5: 1 	  Q0: 2 	  Q10: 0 	  Q9: 2 	  Q6: 1 	  Q3: 2
16	 	 	86.3	 	 Q13: 1 	  Q6: 2 	  Q1: 0 	  Q14: 2 	  Q10: 1 	  Q9: 0
17	 	 	11.0	 	 Q0: 2 	  Q13: 0 	  Q7: 0 	  Q2: 1 	  Q1: 1 	  Q4: 2
18	 	 	70.1	 	 Q8: 1 	  Q1: 1 	  Q11: 1 	  Q4: 2 	  Q12: 2 	  Q6: 2
19	 	 	25.0	 	 Q11: 1 	  Q0: 1 	  Q8: 1 	  Q3: 1 	  Q4: 2 	  Q12: 1
20	 	 	54.2	 	 Q6: 0 	  Q11: 0 	  Q7: 0 	  Q9: 1 	  Q2: 0 	  Q14: 1
====================================================================================================================
TaskID 	 Duration 	 Skill 	 Predecessor IDs
1	 	 	36	 Q2: 1
2	 	 	36	 Q4: 2
3	 	 	21	 Q10: 1
4	 	 	28	 Q8: 1
5	 	 	23	 Q12: 2
6	 	 	9	 Q1: 0
7	 	 	33	 Q10: 0
8	 	 	35	 Q10: 1
9	 	 	17	 Q10: 1
10	 	 	9	 Q12: 2
11	 	 	23	 Q14: 0
12	 	 	24	 Q5: 0	 	8
13	 	 	35	 Q13: 0
14	 	 	12	 Q0: 2
15	 	 	13	 Q1: 0
16	 	 	13	 Q6: 2
17	 	 	29	 Q6: 0
18	 	 	39	 Q3: 1
19	 	 	30	 Q9: 1
20	 	 	38	 Q11: 1
21	 	 	26	 Q6: 0
22	 	 	37	 Q1: 1
23	 	 	21	 Q3: 2
24	 	 	11	 Q8: 1	 	3
25	 	 	40	 Q13: 1
26	 	 	26	 Q14: 2
27	 	 	11	 Q10: 0
28	 	 	35	 Q11: 2
29	 	 	19	 Q5: 2
30	 	 	26	 Q2: 1
31	 	 	29	 Q8: 2	 	29
32	 	 	28	 Q5: 0
33	 	 	32	 Q11: 0	 	4
34	 	 	16	 Q9: 1	 	6
35	 	 	9	 Q8: 1
36	 	 	12	 Q4: 1
37	 	 	24	 Q4: 1	 	26
38	 	 	34	 Q1: 2	 	34
39	 	 	10	 Q7: 0	 	20	23	15
40	 	 	13	 Q10: 2
41	 	 	39	 Q2: 2
42	 	 	28	 Q12: 2
43	 	 	27	 Q5: 0	 	32
44	 	 	23	 Q0: 2
45	 	 	19	 Q14: 0	 	28
46	 	 	9	 Q10: 0	 	20	38
47	 	 	24	 Q5: 0
48	 	 	29	 Q1: 1
49	 	 	21	 Q5: 2	 	28
50	 	 	14	 Q8: 2
51	 	 	32	 Q6: 2	 	28
52	 	 	28	 Q5: 0
53	 	 	23	 Q3: 1	 	8	13
54	 	 	17	 Q8: 2
55	 	 	28	 Q2: 0	 	42
56	 	 	18	 Q11: 1
57	 	 	18	 Q9: 1	 	14
58	 	 	29	 Q10: 2
59	 	 	33	 Q1: 0	 	3
60	 	 	19	 Q4: 1	 	17
61	 	 	19	 Q11: 0	 	4
62	 	 	34	 Q13: 2	 	26
63	 	 	9	 Q13: 2
64	 	 	27	 Q6: 1	 	12	61
65	 	 	20	 Q4: 1	 	14
66	 	 	9	 Q5: 2	 	30
67	 	 	31	 Q14: 1	 	23
68	 	 	12	 Q13: 0	 	22
69	 	 	21	 Q10: 2	 	68
70	 	 	37	 Q11: 1	 	51
71	 	 	21	 Q3: 0
72	 	 	18	 Q2: 1
73	 	 	26	 Q7: 2	 	27
74	 	 	20	 Q7: 2	 	50
75	 	 	33	 Q1: 2
76	 	 	14	 Q13: 0	 	25
77	 	 	11	 Q13: 1	 	75	68
78	 	 	20	 Q4: 0	 	34	39
79	 	 	23	 Q12: 1	 	31	26
80	 	 	14	 Q4: 0	 	78	13
81	 	 	20	 Q5: 1	 	17
82	 	 	36	 Q2: 1
83	 	 	27	 Q7: 1
84	 	 	22	 Q7: 2	 	8
85	 	 	29	 Q7: 2	 	11	67
86	 	 	40	 Q7: 1	 	84
87	 	 	33	 Q3: 0	 	77
88	 	 	33	 Q13: 1	 	77
89	 	 	34	 Q1: 1
90	 	 	33	 Q2: 0	 	54
91	 	 	35	 Q4: 0	 	76
92	 	 	33	 Q2: 0
93	 	 	37	 Q10: 1	 	51
94	 	 	16	 Q9: 1	 	68	63	85
95	 	 	25	 Q7: 2	 	16	65
96	 	 	36	 Q3: 2	 	12
97	 	 	17	 Q7: 1	 	77
98	 	 	20	 Q7: 2	 	86	90	23
99	 	 	39	 Q13: 2	 	48
100	 	 	18	 Q4: 1	 	29
====================================================================================================================
